NAME          BLANK   
ROWS
 N  OBJROW
 G  R0000000
 G  R0000001
 G  R0000002
 G  R0000003
 G  R0000004
COLUMNS
    C0000000  OBJROW     -21.          R0000001   -29.       
    C0000000  R0000003   -2.        
    C0000001  OBJROW     -10.          R0000000   -4.        
    C0000001  R0000001   -22.          R0000002   -28.       
    C0000001  R0000003   -7.        
    C0000002  OBJROW     -29.          R0000003   -13.       
    C0000003  OBJROW     -7.           R0000000   -36.       
    C0000003  R0000002   -3.           R0000003   -20.       
    C0000003  R0000004   -22.       
    C0000004  OBJROW     -31.          R0000002   -6.        
    C0000004  R0000003   -15.       
    C0000005  OBJROW     -49.          R0000001   -24.       
    C0000005  R0000003   -21.       
    C0000006  OBJROW     -30.          R0000000   -11.       
    C0000006  R0000001   -50.          R0000002   -6.        
    C0000006  R0000003   -31.          R0000004   -40.       
    C0000007  OBJROW     -9.           R0000000   -26.       
    C0000007  R0000003   -30.       
    C0000008  OBJROW     -40.          R0000001   -46.       
    C0000008  R0000003   -17.          R0000004   -12.       
    C0000009  OBJROW     -14.          R0000000   -34.       
    C0000009  R0000002   -36.       
RHS
    RHS       R0000000   -180.         R0000001   -24.       
    RHS       R0000002   -15.          R0000003   -121.      
    RHS       R0000004   -110.      
BOUNDS
 UI BOUND     C0000000  1000.       
 UI BOUND     C0000001  1000.       
 UI BOUND     C0000002  1000.       
 UI BOUND     C0000003  1000.       
 UI BOUND     C0000004  1000.       
 UI BOUND     C0000005  1000.       
 UI BOUND     C0000006  1000.       
 UI BOUND     C0000007  1000.       
 UI BOUND     C0000008  1000.       
 UI BOUND     C0000009  1000.       
ENDATA
